(set-logic QF_FPABV)
(declare-fun b199 () (_ FP 11 53))
(declare-fun b283 () (_ FP 11 53))
(declare-fun b606 () (_ FP 8 24))
(declare-fun b216 () (_ FP 11 53))
(declare-fun b616 () (_ FP 8 24))
(declare-fun b621 () (_ FP 8 24))
(declare-fun b601 () (_ FP 8 24))
(declare-fun b182 () (_ FP 11 53))
(declare-fun b567 () (_ FP 8 24))
(declare-fun b250 () (_ FP 11 53))
(declare-fun b582 () (_ FP 8 24))
(declare-fun b641 () (_ FP 8 24))
(declare-fun b557 () (_ FP 8 24))
(declare-fun b562 () (_ FP 8 24))
(declare-fun b596 () (_ FP 8 24))
(declare-fun b547 () (_ FP 8 24))
(declare-fun b149 () (_ FP 11 53))
(declare-fun b626 () (_ FP 8 24))
(declare-fun b552 () (_ FP 8 24))
(declare-fun b577 () (_ FP 8 24))
(declare-fun b267 () (_ FP 11 53))
(declare-fun b233 () (_ FP 11 53))
(declare-fun b587 () (_ FP 8 24))
(declare-fun b376 () (_ FP 8 24))
(declare-fun b140 () (_ FP 11 53))
(declare-fun b540 () (_ FP 8 24))
(declare-fun b117 () (_ FP 8 24))
(declare-fun b631 () (_ FP 8 24))
(declare-fun b110 () (_ FP 8 24))
(declare-fun b572 () (_ FP 8 24))
(declare-fun b108 () (_ FP 8 24))
(declare-fun b545 () (_ FP 8 24))
(declare-fun b127 () (_ FP 11 53))
(declare-fun b373 () (_ FP 8 24))
(declare-fun b165 () (_ FP 11 53))
(declare-fun b636 () (_ FP 8 24))
(declare-fun b611 () (_ FP 8 24))
(define-fun .3 () RoundingMode roundNearestTiesToEven)
(define-fun .9 () (_ FP 8 24) b108)
(define-fun .10 () (_ FP 8 24) (* .3 .9 .9))
(define-fun .11 () (_ FP 8 24) (- .10))
(define-fun .12 () (_ FP 8 24) (* .3 .9 .11))
(define-fun .13 () (_ FP 11 53) ((_ asFloat 11 53) .3 .12))
(define-fun .14 () (_ FP 11 53) b127)
(define-fun .15 () (_ FP 11 53) (/ .3 .13 .14))
(define-fun .16 () (_ FP 8 24) ((_ asFloat 8 24) .3 .15))
(define-fun .17 () (_ FP 8 24) b641)
(define-fun .18 () Bool (= .16 .17))
(define-fun .19 () Bool (not .18))
(define-fun .20 () (_ FP 8 24) (* .3 .11 .16))
(define-fun .21 () (_ FP 11 53) ((_ asFloat 11 53) .3 .20))
(define-fun .22 () (_ FP 11 53) b149)
(define-fun .23 () (_ FP 11 53) (/ .3 .21 .22))
(define-fun .24 () (_ FP 8 24) ((_ asFloat 8 24) .3 .23))
(define-fun .25 () (_ FP 8 24) b636)
(define-fun .26 () Bool (= .24 .25))
(define-fun .27 () Bool (not .26))
(define-fun .28 () (_ FP 8 24) (* .3 .11 .24))
(define-fun .29 () (_ FP 11 53) ((_ asFloat 11 53) .3 .28))
(define-fun .30 () (_ FP 11 53) b165)
(define-fun .31 () (_ FP 11 53) (/ .3 .29 .30))
(define-fun .32 () (_ FP 8 24) ((_ asFloat 8 24) .3 .31))
(define-fun .33 () (_ FP 8 24) b631)
(define-fun .34 () Bool (= .32 .33))
(define-fun .35 () Bool (not .34))
(define-fun .36 () (_ FP 8 24) (* .3 .11 .32))
(define-fun .37 () (_ FP 11 53) ((_ asFloat 11 53) .3 .36))
(define-fun .38 () (_ FP 11 53) b182)
(define-fun .39 () (_ FP 11 53) (/ .3 .37 .38))
(define-fun .40 () (_ FP 8 24) ((_ asFloat 8 24) .3 .39))
(define-fun .41 () (_ FP 8 24) b626)
(define-fun .42 () Bool (= .40 .41))
(define-fun .43 () Bool (not .42))
(define-fun .44 () (_ FP 8 24) (* .3 .11 .40))
(define-fun .45 () (_ FP 11 53) ((_ asFloat 11 53) .3 .44))
(define-fun .46 () (_ FP 11 53) b199)
(define-fun .47 () (_ FP 11 53) (/ .3 .45 .46))
(define-fun .48 () (_ FP 8 24) ((_ asFloat 8 24) .3 .47))
(define-fun .49 () (_ FP 8 24) b621)
(define-fun .50 () Bool (= .48 .49))
(define-fun .51 () Bool (not .50))
(define-fun .52 () (_ FP 8 24) (* .3 .11 .48))
(define-fun .53 () (_ FP 11 53) ((_ asFloat 11 53) .3 .52))
(define-fun .54 () (_ FP 11 53) b216)
(define-fun .55 () (_ FP 11 53) (/ .3 .53 .54))
(define-fun .56 () (_ FP 8 24) ((_ asFloat 8 24) .3 .55))
(define-fun .57 () (_ FP 8 24) b616)
(define-fun .58 () Bool (= .56 .57))
(define-fun .59 () Bool (not .58))
(define-fun .60 () (_ FP 8 24) (* .3 .11 .56))
(define-fun .61 () (_ FP 11 53) ((_ asFloat 11 53) .3 .60))
(define-fun .62 () (_ FP 11 53) b233)
(define-fun .63 () (_ FP 11 53) (/ .3 .61 .62))
(define-fun .64 () (_ FP 8 24) ((_ asFloat 8 24) .3 .63))
(define-fun .65 () (_ FP 8 24) b611)
(define-fun .66 () Bool (= .64 .65))
(define-fun .67 () Bool (not .66))
(define-fun .68 () (_ FP 8 24) (* .3 .11 .64))
(define-fun .69 () (_ FP 11 53) ((_ asFloat 11 53) .3 .68))
(define-fun .70 () (_ FP 11 53) b250)
(define-fun .71 () (_ FP 11 53) (/ .3 .69 .70))
(define-fun .72 () (_ FP 8 24) ((_ asFloat 8 24) .3 .71))
(define-fun .73 () (_ FP 8 24) b606)
(define-fun .74 () Bool (= .72 .73))
(define-fun .75 () Bool (not .74))
(define-fun .76 () (_ FP 8 24) (* .3 .11 .72))
(define-fun .77 () (_ FP 11 53) ((_ asFloat 11 53) .3 .76))
(define-fun .78 () (_ FP 11 53) b267)
(define-fun .79 () (_ FP 11 53) (/ .3 .77 .78))
(define-fun .80 () (_ FP 8 24) ((_ asFloat 8 24) .3 .79))
(define-fun .81 () (_ FP 8 24) b601)
(define-fun .82 () Bool (= .80 .81))
(define-fun .83 () Bool (not .82))
(define-fun .84 () (_ FP 8 24) (* .3 .11 .80))
(define-fun .85 () (_ FP 11 53) ((_ asFloat 11 53) .3 .84))
(define-fun .86 () (_ FP 11 53) b283)
(define-fun .87 () (_ FP 11 53) (/ .3 .85 .86))
(define-fun .88 () (_ FP 8 24) ((_ asFloat 8 24) .3 .87))
(define-fun .89 () (_ FP 8 24) b596)
(define-fun .90 () Bool (= .88 .89))
(define-fun .91 () Bool (not .90))
(define-fun .92 () (_ FP 8 24) b545)
(define-fun .93 () (_ FP 8 24) b587)
(define-fun .94 () Bool (= .92 .93))
(define-fun .95 () Bool (not .94))
(define-fun .96 () (_ FP 8 24) b582)
(define-fun .97 () Bool (= .93 .96))
(define-fun .98 () Bool (not .97))
(define-fun .99 () (_ FP 8 24) b577)
(define-fun .100 () Bool (= .96 .99))
(define-fun .101 () Bool (not .100))
(define-fun .102 () (_ FP 8 24) b572)
(define-fun .103 () Bool (= .99 .102))
(define-fun .104 () Bool (not .103))
(define-fun .105 () (_ FP 8 24) b567)
(define-fun .106 () Bool (= .102 .105))
(define-fun .107 () Bool (not .106))
(define-fun .108 () (_ FP 8 24) b562)
(define-fun .109 () Bool (= .105 .108))
(define-fun .110 () Bool (not .109))
(define-fun .111 () (_ FP 8 24) b557)
(define-fun .112 () Bool (= .108 .111))
(define-fun .113 () Bool (not .112))
(define-fun .114 () (_ FP 8 24) b552)
(define-fun .115 () Bool (= .111 .114))
(define-fun .116 () Bool (not .115))
(define-fun .117 () (_ FP 8 24) (+ .3 .9 .16))
(define-fun .118 () (_ FP 8 24) (+ .3 .24 .117))
(define-fun .119 () (_ FP 8 24) (+ .3 .32 .118))
(define-fun .120 () (_ FP 8 24) (+ .3 .40 .119))
(define-fun .121 () (_ FP 8 24) (+ .3 .48 .120))
(define-fun .122 () (_ FP 8 24) (+ .3 .56 .121))
(define-fun .123 () (_ FP 8 24) (+ .3 .64 .122))
(define-fun .124 () (_ FP 8 24) (+ .3 .72 .123))
(define-fun .125 () (_ FP 8 24) (+ .3 .80 .124))
(define-fun .126 () (_ FP 8 24) (+ .3 .88 .125))
(define-fun .127 () Bool (= .114 .126))
(define-fun .128 () Bool (not .127))
(define-fun .129 () (_ FP 8 24) b547)
(define-fun .130 () Bool (= .92 .129))
(define-fun .131 () Bool (not .130))
(define-fun .132 () (_ FP 8 24) b540)
(define-fun .133 () Bool (= .9 .132))
(define-fun .134 () Bool (not .133))
(define-fun .135 () (_ FP 8 24) b110)
(define-fun .136 () Bool (<= .135 .9))
(define-fun .137 () Bool (not .136))
(define-fun .138 () (_ FP 8 24) (- .9))
(define-fun .139 () Bool (= .132 .138))
(define-fun .140 () Bool (and .137 .139))
(define-fun .141 () Bool (and .134 .140))
(define-fun .142 () Bool (<= .135 .92))
(define-fun .143 () Bool (not .142))
(define-fun .144 () Bool (and .141 .143))
(define-fun .145 () (_ FP 8 24) (- .92))
(define-fun .146 () Bool (= .129 .145))
(define-fun .147 () Bool (and .144 .146))
(define-fun .148 () Bool (and .131 .147))
(define-fun .149 () (_ FP 11 53) ((_ asFloat 11 53) .3 .81))
(define-fun .150 () (_ FP 11 53) b140)
(define-fun .151 () Bool (<= .150 .149))
(define-fun .152 () Bool (not .151))
(define-fun .153 () Bool (and .148 .152))
(define-fun .154 () Bool (= .114 .125))
(define-fun .155 () Bool (and .153 .154))
(define-fun .156 () (_ FP 8 24) b117)
(define-fun .157 () Bool (<= .129 .156))
(define-fun .158 () Bool (not .157))
(define-fun .159 () Bool (and .155 .158))
(define-fun .160 () (_ FP 8 24) b376)
(define-fun .161 () Bool (<= .132 .160))
(define-fun .162 () Bool (and .159 .161))
(define-fun .163 () (_ FP 8 24) b373)
(define-fun .164 () Bool (<= .163 .9))
(define-fun .165 () Bool (and .162 .164))
(define-fun .166 () Bool (<= .9 .160))
(define-fun .167 () Bool (and .165 .166))
(define-fun .168 () Bool (and .128 .167))
(define-fun .169 () (_ FP 11 53) ((_ asFloat 11 53) .3 .73))
(define-fun .170 () Bool (<= .150 .169))
(define-fun .171 () Bool (not .170))
(define-fun .172 () Bool (and .168 .171))
(define-fun .173 () Bool (= .111 .124))
(define-fun .174 () Bool (and .172 .173))
(define-fun .175 () Bool (and .116 .174))
(define-fun .176 () (_ FP 11 53) ((_ asFloat 11 53) .3 .65))
(define-fun .177 () Bool (<= .150 .176))
(define-fun .178 () Bool (not .177))
(define-fun .179 () Bool (and .175 .178))
(define-fun .180 () Bool (= .108 .123))
(define-fun .181 () Bool (and .179 .180))
(define-fun .182 () Bool (and .113 .181))
(define-fun .183 () (_ FP 11 53) ((_ asFloat 11 53) .3 .57))
(define-fun .184 () Bool (<= .150 .183))
(define-fun .185 () Bool (not .184))
(define-fun .186 () Bool (and .182 .185))
(define-fun .187 () Bool (= .105 .122))
(define-fun .188 () Bool (and .186 .187))
(define-fun .189 () Bool (and .110 .188))
(define-fun .190 () (_ FP 11 53) ((_ asFloat 11 53) .3 .49))
(define-fun .191 () Bool (<= .150 .190))
(define-fun .192 () Bool (not .191))
(define-fun .193 () Bool (and .189 .192))
(define-fun .194 () Bool (= .102 .121))
(define-fun .195 () Bool (and .193 .194))
(define-fun .196 () Bool (and .107 .195))
(define-fun .197 () (_ FP 11 53) ((_ asFloat 11 53) .3 .41))
(define-fun .198 () Bool (<= .150 .197))
(define-fun .199 () Bool (not .198))
(define-fun .200 () Bool (and .196 .199))
(define-fun .201 () Bool (= .99 .120))
(define-fun .202 () Bool (and .200 .201))
(define-fun .203 () Bool (and .104 .202))
(define-fun .204 () (_ FP 11 53) ((_ asFloat 11 53) .3 .33))
(define-fun .205 () Bool (<= .150 .204))
(define-fun .206 () Bool (not .205))
(define-fun .207 () Bool (and .203 .206))
(define-fun .208 () Bool (= .96 .119))
(define-fun .209 () Bool (and .207 .208))
(define-fun .210 () Bool (and .101 .209))
(define-fun .211 () (_ FP 11 53) ((_ asFloat 11 53) .3 .25))
(define-fun .212 () Bool (<= .150 .211))
(define-fun .213 () Bool (not .212))
(define-fun .214 () Bool (and .210 .213))
(define-fun .215 () Bool (= .93 .118))
(define-fun .216 () Bool (and .214 .215))
(define-fun .217 () Bool (and .98 .216))
(define-fun .218 () (_ FP 11 53) ((_ asFloat 11 53) .3 .17))
(define-fun .219 () Bool (<= .150 .218))
(define-fun .220 () Bool (not .219))
(define-fun .221 () Bool (and .217 .220))
(define-fun .222 () Bool (= .92 .117))
(define-fun .223 () Bool (and .221 .222))
(define-fun .224 () Bool (and .95 .223))
(define-fun .225 () Bool (<= .135 .88))
(define-fun .226 () Bool (not .225))
(define-fun .227 () Bool (and .224 .226))
(define-fun .228 () (_ FP 8 24) (- .88))
(define-fun .229 () Bool (= .89 .228))
(define-fun .230 () Bool (and .227 .229))
(define-fun .231 () Bool (and .91 .230))
(define-fun .232 () Bool (<= .135 .80))
(define-fun .233 () Bool (not .232))
(define-fun .234 () Bool (and .231 .233))
(define-fun .235 () (_ FP 8 24) (- .80))
(define-fun .236 () Bool (= .81 .235))
(define-fun .237 () Bool (and .234 .236))
(define-fun .238 () Bool (and .83 .237))
(define-fun .239 () Bool (<= .135 .72))
(define-fun .240 () Bool (not .239))
(define-fun .241 () Bool (and .238 .240))
(define-fun .242 () (_ FP 8 24) (- .72))
(define-fun .243 () Bool (= .73 .242))
(define-fun .244 () Bool (and .241 .243))
(define-fun .245 () Bool (and .75 .244))
(define-fun .246 () Bool (<= .135 .64))
(define-fun .247 () Bool (not .246))
(define-fun .248 () Bool (and .245 .247))
(define-fun .249 () (_ FP 8 24) (- .64))
(define-fun .250 () Bool (= .65 .249))
(define-fun .251 () Bool (and .248 .250))
(define-fun .252 () Bool (and .67 .251))
(define-fun .253 () Bool (<= .135 .56))
(define-fun .254 () Bool (not .253))
(define-fun .255 () Bool (and .252 .254))
(define-fun .256 () (_ FP 8 24) (- .56))
(define-fun .257 () Bool (= .57 .256))
(define-fun .258 () Bool (and .255 .257))
(define-fun .259 () Bool (and .59 .258))
(define-fun .260 () Bool (<= .135 .48))
(define-fun .261 () Bool (not .260))
(define-fun .262 () Bool (and .259 .261))
(define-fun .263 () (_ FP 8 24) (- .48))
(define-fun .264 () Bool (= .49 .263))
(define-fun .265 () Bool (and .262 .264))
(define-fun .266 () Bool (and .51 .265))
(define-fun .267 () Bool (<= .135 .40))
(define-fun .268 () Bool (not .267))
(define-fun .269 () Bool (and .266 .268))
(define-fun .270 () (_ FP 8 24) (- .40))
(define-fun .271 () Bool (= .41 .270))
(define-fun .272 () Bool (and .269 .271))
(define-fun .273 () Bool (and .43 .272))
(define-fun .274 () Bool (<= .135 .32))
(define-fun .275 () Bool (not .274))
(define-fun .276 () Bool (and .273 .275))
(define-fun .277 () (_ FP 8 24) (- .32))
(define-fun .278 () Bool (= .33 .277))
(define-fun .279 () Bool (and .276 .278))
(define-fun .280 () Bool (and .35 .279))
(define-fun .281 () Bool (<= .135 .24))
(define-fun .282 () Bool (not .281))
(define-fun .283 () Bool (and .280 .282))
(define-fun .284 () (_ FP 8 24) (- .24))
(define-fun .285 () Bool (= .25 .284))
(define-fun .286 () Bool (and .283 .285))
(define-fun .287 () Bool (and .27 .286))
(define-fun .288 () Bool (<= .135 .16))
(define-fun .289 () Bool (not .288))
(define-fun .290 () Bool (and .287 .289))
(define-fun .291 () (_ FP 8 24) (- .16))
(define-fun .292 () Bool (= .17 .291))
(define-fun .293 () Bool (and .290 .292))
(define-fun .294 () (_ FP 11 53) ((_ asFloat 11 53) .3 .89))
(define-fun .295 () Bool (<= .150 .294))
(define-fun .296 () Bool (not .295))
(define-fun .297 () Bool (and .293 .296))
(define-fun .298 () Bool (and .19 .297))
(assert .298)
(check-sat)
